
  32    4
  10   10   10   10

   0   0   0   0   0  16 2 3 4 5 6 7 8 9 10 11 12 13 14 15 16 17 
   2  10  10  10  10   3 21 19 18 
   7  10  10  10  10   3 21 19 18 
   7  10  10  10  10   3 21 19 18 
   7  10  10  10  10   3 21 19 18 
  10  10  10  10  10   3 21 19 18 
   6  10  10  10  10   3 21 19 18 
   2  10  10  10  10   3 21 20 19 
   5  10  10  10  10   3 21 20 19 
   9  10  10  10  10   3 21 20 19 
   9  10  10  10  10   2 21 18 
   3  10  10  10  10   2 21 18 
   5  10  10  10  10   2 19 18 
   5  10  10  10  10   2 19 18 
   7  10  10  10  10   3 24 21 20 
   6  10  10  10  10   3 24 21 20 
   5  10  10  10  10   2 20 19 
   7  10  10  10  10   2 24 20 
   7  10  10  10  10   3 24 23 22 
   1  10  10  10  10   2 23 22 
   3  10  10  10  10   2 23 22 
   7  10  10  10  10   4 31 28 26 25 
   9  10  10  10  10   4 31 27 26 25 
   5  10  10  10  10   3 31 27 25 
   5  10  10  10  10   2 30 29 
   4  10  10  10  10   1 30 
   7  10  10  10  10   1 29 
  10  10  10  10  10   1 29 
   1  10  10  10  10   1 32
   7  10  10  10  10   1 32
   2  10  10  10  10   1 32
   0   0   0   0   0   0 
